/* Objective function */
min: 4.7996353407680274x0 + 25.351187944227x1 + 11.787619481414445x2 + 16.451009902434702x3 + 32.426147701634505x4 + 3.3281888396262596x5 + 12.42703120271447x6 + 3.6423860120194496x7 + 6.554267181769131x8 + 16.40934790887101x9 + 8.586656789881745x10 + 12.673785794252773x11 + 4.023315423401355x12 + 5.029483397138523x13 + 12.043278486167843x14 + 33.987870103324944x15 + 43.03352187088688x16 + 27.288539647590905x17 + 26.17323719053779x18 + 36.136490745464656x19 + 19.399654264220132x20 + 27.758377210040358x21 + 9.199525387531978x22 + 5.9743925989622735x23 + 12.161233476002792x24;

/* Variable bounds */
-1.0x0 <= 0.0;
-1.0x1 <= 0.0;
-1.0x2 <= 0.0;
-1.0x3 <= 0.0;
-1.0x4 <= 0.0;
-1.0x5 <= 0.0;
-1.0x6 <= 0.0;
-1.0x7 <= 0.0;
-1.0x8 <= 0.0;
-1.0x9 <= 0.0;
-1.0x10 <= 0.0;
-1.0x11 <= 0.0;
-1.0x12 <= 0.0;
-1.0x13 <= 0.0;
-1.0x14 <= 0.0;
-1.0x15 <= 0.0;
-1.0x16 <= 0.0;
-1.0x17 <= 0.0;
-1.0x18 <= 0.0;
-1.0x19 <= 0.0;
-1.0x20 <= 0.0;
-1.0x21 <= 0.0;
-1.0x22 <= 0.0;
-1.0x23 <= 0.0;
-1.0x24 <= 0.0;
1.0x0 + 1.0x1 + 1.0x2 + 1.0x3 + 1.0x4 <= 1.08601215516407;
1.0x5 + 1.0x6 + 1.0x7 + 1.0x8 + 1.0x9 <= 0.40567913209944906;
1.0x10 + 1.0x11 + 1.0x12 + 1.0x13 + 1.0x14 <= 0.5526243746340784;
1.0x15 + 1.0x16 + 1.0x17 + 1.0x18 + 1.0x19 <= 8.730649244649284;
1.0x20 + 1.0x21 + 1.0x22 + 1.0x23 + 1.0x24 <= 0.2575139538666575;
1.0x0 + 1.0x5 + 1.0x10 + 1.0x15 + 1.0x20 <= 3.390719184903842;
1.0x1 + 1.0x6 + 1.0x11 + 1.0x16 + 1.0x21 <= 2.788945608536147;
1.0x2 + 1.0x7 + 1.0x12 + 1.0x17 + 1.0x22 <= 0.7212176178334072;
1.0x3 + 1.0x8 + 1.0x13 + 1.0x18 + 1.0x23 <= 0.8890105114474819;
1.0x4 + 1.0x9 + 1.0x14 + 1.0x19 + 1.0x24 <= 0.2884966199282514;
1.0x0 + 1.0x1 + 1.0x2 + 1.0x3 + 1.0x4 + 1.0x5 + 1.0x6 + 1.0x7 + 1.0x8 + 1.0x9 + 1.0x10 + 1.0x11 + 1.0x12 + 1.0x13 + 1.0x14 + 1.0x15 + 1.0x16 + 1.0x17 + 1.0x18 + 1.0x19 + 1.0x20 + 1.0x21 + 1.0x22 + 1.0x23 + 1.0x24 <= 8.078389542649129;
-1.0x0 + -1.0x1 + -1.0x2 + -1.0x3 + -1.0x4 + -1.0x5 + -1.0x6 + -1.0x7 + -1.0x8 + -1.0x9 + -1.0x10 + -1.0x11 + -1.0x12 + -1.0x13 + -1.0x14 + -1.0x15 + -1.0x16 + -1.0x17 + -1.0x18 + -1.0x19 + -1.0x20 + -1.0x21 + -1.0x22 + -1.0x23 + -1.0x24 <= -8.078389542649129;
